plugin load ../src/PairTorch.so
pair_style torch 1.0

units lj
dimension 3
atom_style atomic
boundary p p p

region simulation_box block -10 10 -10 10 -10 10
create_box 2 simulation_box
region region_cylinder_in cylinder z 0 0 5 INF INF side in
region region_cylinder_out cylinder z 0 0 10 INF INF side out
create_atoms 1 random 128 341341 region_cylinder_out
create_atoms 2 random 16 127569 region_cylinder_in

mass 1 1
mass 2 1
pair_coeff * * ../../tests/zero_model.pt 1 6
