plugin load ../src/PairTorch.so
pair_style torch 1.0
