# Adapted from https://lammpstutorials.github.io/sphinx/build/html/tutorials/level1/lennard-jones-fluid.html.

plugin load ../src/PairTorch.so

# PART A - ENERGY MINIMIZATION
# 1) Initialization
units lj
dimension 3
atom_style atomic
boundary p p p

# 2) System definition
region simulation_box block -10 10 -10 10 -10 10
create_box 2 simulation_box
region region_cylinder_in cylinder z 0 0 5 INF INF side in
region region_cylinder_out cylinder z 0 0 5 INF INF side out
create_atoms 1 random 128 341341 region_cylinder_out
create_atoms 2 random 16 127569 region_cylinder_in

# 3) Simulation settings
mass 1 1
mass 2 1
pair_style torch 2.5
pair_coeff * * ../../tests/lj_model.pt 1 2

# 4) Visualization
thermo 10
thermo_style custom step temp pe ke etotal press
dump mydmp_min all atom 10 dump.min.lammpstrj

# 5) Run
minimize 1.0e-4 1.0e-6 1000 10000


# PART B - MOLECULAR DYNAMICS
# 4) Visualization
thermo 100
dump mydmp_md all atom 100 dump.md.lammpstrj

# 5) Run
velocity all create 1.0 4928459 mom yes rot yes dist gaussian
fix mynve all nve
fix mylgv all langevin 1.0 1.0 0.1 1530917 zero yes
timestep 0.005
run 1000
write_data mixed.data
